NAME: kroB200
TYPE: TSP
COMMENT: 200-city problem B (Krolak/Felts/Nelson)
DIMENSION: 200
EDGE_WEIGHT_TYPE : EUC_2D
NODE_COORD_SECTION
1 6.29570e+02 6.80860e+02
2 7.56500e+02 7.72700e+02
3 7.81890e+02 7.72700e+02
4 8.07300e+02 7.72700e+02
5 1.01051e+03 8.99710e+02
6 1.03590e+03 8.74300e+02
7 1.09061e+03 9.21190e+02
8 1.09061e+03 9.71990e+02
9 1.09061e+03 9.97400e+02
10 1.11211e+03 1.00131e+03
11 1.23910e+03 1.10289e+03
12 1.36609e+03 1.00131e+03
13 1.46770e+03 9.75900e+02
14 1.59859e+03 9.97400e+02
15 1.70020e+03 1.14980e+03
16 1.70020e+03 1.17520e+03
17 1.63670e+03 1.22600e+03
18 1.59859e+03 1.25141e+03
19 1.54391e+03 1.30609e+03
20 1.53119e+03 1.22990e+03
21 1.64551e+03 1.30609e+03
22 1.64939e+03 1.37840e+03
23 1.62400e+03 1.42920e+03
24 1.62400e+03 1.45461e+03
25 1.59859e+03 1.50539e+03
26 1.54391e+03 1.50930e+03
27 1.51850e+03 1.43311e+03
28 1.37000e+03 1.50539e+03
29 1.34070e+03 1.50930e+03
30 1.39150e+03 1.43311e+03
31 1.41689e+03 1.30609e+03
32 1.45500e+03 1.28070e+03
33 1.40811e+03 1.22600e+03
34 1.37000e+03 1.25141e+03
35 1.34461e+03 1.25141e+03
36 1.21760e+03 1.35301e+03
37 1.16680e+03 1.35301e+03
38 1.15410e+03 1.27680e+03
39 1.09061e+03 1.31490e+03
40 1.06520e+03 1.32760e+03
41 1.03980e+03 1.35301e+03
42 1.03590e+03 1.30609e+03
43 1.02320e+03 1.28070e+03
44 8.83500e+02 1.10289e+03
45 8.58110e+02 1.06480e+03
46 8.11190e+02 1.04820e+03
47 7.05700e+02 1.00131e+03
48 6.33400e+02 9.21190e+02
49 6.33400e+02 9.97400e+02
50 6.54900e+02 1.02670e+03
51 6.58810e+02 1.04820e+03
52 6.58810e+02 1.07359e+03
53 6.54900e+02 1.10289e+03
54 7.56500e+02 1.15369e+03
55 7.60390e+02 1.17520e+03
56 8.61990e+02 1.30221e+03
57 7.60390e+02 1.27680e+03
58 6.58810e+02 1.35301e+03
59 7.09610e+02 1.53080e+03
60 7.35000e+02 1.58160e+03
61 6.20700e+02 1.68320e+03
62 6.58810e+02 1.73400e+03
63 6.58810e+02 1.78480e+03
64 6.08010e+02 1.79750e+03
65 6.54900e+02 1.89029e+03
66 7.05700e+02 1.91570e+03
67 7.56500e+02 1.91570e+03
68 7.56500e+02 1.89029e+03
69 7.81890e+02 1.89029e+03
70 8.36600e+02 1.88641e+03
71 7.81890e+02 1.83949e+03
72 7.56500e+02 1.78869e+03
73 7.81890e+02 1.76330e+03
74 8.07300e+02 1.76330e+03
75 7.81890e+02 1.71250e+03
76 7.56500e+02 1.66170e+03
77 8.07300e+02 1.66170e+03
78 8.32700e+02 1.58551e+03
79 8.96190e+02 1.42039e+03
80 9.59710e+02 1.34420e+03
81 9.63590e+02 1.40381e+03
82 9.63590e+02 1.45461e+03
83 1.01051e+03 1.48391e+03
84 1.03590e+03 1.48391e+03
85 1.13750e+03 1.53471e+03
86 1.13750e+03 1.48391e+03
87 1.21369e+03 1.45850e+03
88 1.26840e+03 1.50539e+03
89 1.26840e+03 1.55619e+03
90 1.31529e+03 1.58551e+03
91 1.36609e+03 1.58551e+03
92 1.37000e+03 1.63240e+03
93 1.34461e+03 1.63240e+03
94 1.34461e+03 1.68320e+03
95 1.31920e+03 1.78480e+03
96 1.14141e+03 1.93721e+03
97 1.03980e+03 1.91180e+03
98 1.01051e+03 1.90301e+03
99 1.06131e+03 1.83949e+03
100 1.11211e+03 1.86490e+03
101 1.11211e+03 1.81410e+03
102 1.18830e+03 1.78869e+03
103 1.21369e+03 1.78869e+03
104 1.23910e+03 1.76330e+03
105 1.21369e+03 1.71250e+03
106 1.23910e+03 1.71250e+03
107 1.21369e+03 1.66170e+03
108 1.16680e+03 1.63240e+03
109 1.19221e+03 1.58160e+03
110 1.16680e+03 1.56891e+03
111 1.06131e+03 1.66170e+03
112 1.03980e+03 1.63240e+03
113 9.63590e+02 1.70859e+03
114 9.38200e+02 1.75939e+03
115 8.74710e+02 1.78480e+03
116 8.83500e+02 1.81410e+03
117 9.08910e+02 1.81410e+03
118 9.59710e+02 1.78869e+03
119 9.85100e+02 1.78869e+03
120 9.85100e+02 1.76330e+03
121 1.01439e+03 1.75939e+03
122 1.01439e+03 1.78480e+03
123 9.89000e+02 1.83561e+03
124 9.38200e+02 1.96260e+03
125 8.87400e+02 1.94990e+03
126 8.61990e+02 1.93721e+03
127 7.09610e+02 2.06420e+03
128 5.95290e+02 2.16580e+03
129 4.91990e+02 2.21480e+03
130 5.14490e+02 2.29730e+03
131 8.70800e+02 2.04270e+03
132 9.12790e+02 2.01340e+03
133 9.12790e+02 2.06420e+03
134 9.97790e+02 2.18240e+03
135 1.03590e+03 2.11891e+03
136 1.03590e+03 2.09350e+03
137 1.08670e+03 2.08080e+03
138 1.09939e+03 2.05539e+03
139 1.11211e+03 2.03000e+03
140 1.14141e+03 2.08961e+03
141 1.18830e+03 2.14430e+03
142 1.26449e+03 2.11891e+03
143 1.28990e+03 2.14430e+03
144 1.35340e+03 2.10619e+03
145 1.30260e+03 2.00461e+03
146 1.39150e+03 2.08080e+03
147 1.44230e+03 2.04270e+03
148 1.46770e+03 2.04270e+03
149 1.49311e+03 2.04270e+03
150 1.52240e+03 2.02609e+03
151 1.51850e+03 2.11891e+03
152 1.56930e+03 2.04270e+03
153 1.56930e+03 1.89029e+03
154 1.59471e+03 1.81410e+03
155 1.57320e+03 1.78480e+03
156 1.52240e+03 1.83561e+03
157 1.49699e+03 1.88641e+03
158 1.47160e+03 1.88641e+03
159 1.44619e+03 1.88641e+03
160 1.49311e+03 1.81410e+03
161 1.46770e+03 1.78869e+03
162 1.49311e+03 1.78869e+03
163 1.51850e+03 1.78869e+03
164 1.54391e+03 1.73789e+03
165 1.59471e+03 1.61090e+03
166 1.76369e+03 1.78480e+03
167 1.70020e+03 1.78480e+03
168 1.64551e+03 1.94109e+03
169 1.72170e+03 1.99189e+03
170 1.77250e+03 1.96650e+03
171 1.79789e+03 1.96650e+03
172 1.83600e+03 1.96650e+03
173 1.86141e+03 1.89029e+03
174 1.88680e+03 1.89029e+03
175 1.84869e+03 1.81410e+03
176 1.87410e+03 1.81410e+03
177 1.89949e+03 1.81410e+03
178 1.95029e+03 1.78869e+03
179 1.97570e+03 1.78869e+03
180 1.97570e+03 1.83949e+03
181 2.00109e+03 1.83949e+03
182 2.05189e+03 1.83949e+03
183 2.05189e+03 1.78869e+03
184 2.02650e+03 1.73789e+03
185 2.07730e+03 1.71250e+03
186 2.12811e+03 1.68711e+03
187 2.20430e+03 1.73789e+03
188 2.20430e+03 1.78869e+03
189 2.38211e+03 1.63631e+03
190 2.44561e+03 1.58551e+03
191 2.48369e+03 1.58551e+03
192 2.52570e+03 1.58160e+03
193 2.47490e+03 1.55619e+03
194 2.44949e+03 1.55619e+03
195 2.38600e+03 1.53080e+03
196 2.36061e+03 1.53080e+03
197 2.38211e+03 1.47119e+03
198 2.36061e+03 1.40381e+03
199 2.33520e+03 1.40381e+03
200 2.29320e+03 1.35689e+03
EOF
